Route #1: 4 45 29 5 47 36 69 71 60 70 20 37 15 57
Route #2: 48 21 61 22 64 42 41 56 23 43 1 73
Route #3: 30 2 74 28 62 33 63 16 49 24 3
Route #4: 40 44 32 50 18 55 25 9 39 72 58 12
Route #5: 31 10 38 65 66 11 59 14
Route #6: 67 7 53 35 8 19 54 13 27 52 34 46
Route #7: 26 17 51 6 68 75
Cost 734